\ This file has been generated by DOcplex
\ ENCODING=ISO-8859-1
\Problem name: random_problem.lp

Minimize
 obj: - 304 x0 - 152 x1 - 76 x2 - 624 x3 - 312 x4 - 156 x5 - 104 x6 - 52 x7
      - 26 x8 + [ 3840 x0^2 + 3840 x0*x1 + 1920 x0*x2 - 640 x0*x3 - 320 x0*x4
      - 160 x0*x5 + 2048 x0*x6 + 1024 x0*x7 + 512 x0*x8 + 960 x1^2 + 960 x1*x2
      - 320 x1*x3 - 160 x1*x4 - 80 x1*x5 + 1024 x1*x6 + 512 x1*x7 + 256 x1*x8
      + 240 x2^2 - 160 x2*x3 - 80 x2*x4 - 40 x2*x5 + 512 x2*x6 + 256 x2*x7
      + 128 x2*x8 + 9344 x3^2 + 9344 x3*x4 + 4672 x3*x5 + 2688 x3*x6
      + 1344 x3*x7 + 672 x3*x8 + 2336 x4^2 + 2336 x4*x5 + 1344 x4*x6 + 672 x4*x7
      + 336 x4*x8 + 584 x5^2 + 672 x5*x6 + 336 x5*x7 + 168 x5*x8 + 3008 x6^2
      + 3008 x6*x7 + 1504 x6*x8 + 752 x7^2 + 752 x7*x8 + 188 x8^2 ]/2
Subject To
 c0: 4 x0 + 2 x1 + x2 + 4 x3 + 2 x4 + x5 + 4 x6 + 2 x7 + x8 = 7

Bounds
 0 <= x0 <= 1
 0 <= x1 <= 1
 0 <= x2 <= 1
 0 <= x3 <= 1
 0 <= x4 <= 1
 0 <= x5 <= 1
 0 <= x6 <= 1
 0 <= x7 <= 1
 0 <= x8 <= 1

Binaries
 x0 x1 x2 x3 x4 x5 x6 x7 x8
End
